* ENCODING=ISO-8859-1
NAME          CPLEX
ROWS
 N  obj1    
 G  c1      
 G  c2      
 G  c3      
 G  c4      
 G  c5      
 G  c6      
 G  c7      
 G  c8      
 G  c9      
 G  c10     
 G  c11     
 G  c12     
 G  c13     
 G  c14     
 G  c15     
 G  c16     
 G  c17     
 G  c18     
 G  c19     
 G  c20     
 G  c21     
 G  c22     
 G  c23     
 G  c24     
 G  c25     
 G  c26     
 G  c27     
 G  c28     
 G  c29     
 G  c30     
 G  c31     
 G  c32     
 G  c33     
 G  c34     
 G  c35     
 G  c36     
 G  c37     
 G  c38     
 G  c39     
 G  c40     
COLUMNS
    MARK0000  'MARKER'                 'INTORG'
    x1        obj1                            1
    x1        c6                            583
    x1        c13                           257
    x1        c23                           619
    x1        c26                           809
    x2        obj1                            1
    x2        c6                            342
    x2        c13                           226
    x2        c15                           238
    x2        c20                           842
    x2        c32                           538
    x2        c40                           425
    x3        obj1                            1
    x3        c9                            935
    x3        c14                           597
    x3        c15                           884
    x3        c28                           999
    x3        c35                           445
    x3        c36                           836
    x4        obj1                            1
    x4        c6                            521
    x4        c26                           712
    x4        c27                           452
    x5        obj1                            1
    x5        c28                           276
    x6        obj1                            1
    x6        c14                           422
    x6        c18                           394
    x6        c25                           386
    x7        obj1                            1
    x7        c1                            755
    x7        c3                            656
    x7        c10                           474
    x7        c15                           304
    x7        c18                           776
    x7        c32                           277
    x8        obj1                            1
    x8        c20                           265
    x8        c21                           327
    x8        c31                           326
    x9        obj1                            1
    x9        c5                            780
    x9        c30                           230
    x10       obj1                            1
    x10       c17                           353
    x10       c26                           234
    x10       c31                           759
    x10       c39                           289
    x11       obj1                            1
    x11       c2                            846
    x11       c4                            184
    x11       c7                            213
    x11       c12                           370
    x11       c25                           289
    x12       obj1                            1
    x12       c7                            338
    x12       c16                           460
    x12       c29                           999
    x12       c38                           616
    x13       obj1                            1
    x13       c8                            935
    x13       c17                           333
    x13       c26                           678
    x13       c37                           688
    x14       obj1                            1
    x14       c37                           834
    x15       obj1                            1
    x16       obj1                            1
    x16       c2                            251
    x16       c8                            690
    x16       c34                           699
    x17       obj1                            1
    x17       c5                            308
    x17       c7                            895
    x17       c10                           935
    x17       c12                           433
    x17       c19                           377
    x17       c25                           119
    x17       c26                           519
    x17       c32                           324
    x17       c33                           105
    x17       c40                           611
    x18       obj1                            1
    x18       c14                           822
    x18       c15                           139
    x19       obj1                            1
    x19       c1                            344
    x19       c9                            488
    x19       c22                           466
    x19       c37                           569
    x20       obj1                            1
    x20       c8                            366
    x20       c9                            963
    x20       c10                           498
    x20       c14                           136
    x20       c20                           952
    x20       c28                           394
    x20       c37                           236
    x21       obj1                            1
    x21       c25                           485
    x21       c26                           308
    x21       c37                           512
    x21       c40                           357
    x22       obj1                            1
    x22       c1                            312
    x22       c2                            831
    x22       c5                            161
    x22       c18                           208
    x22       c27                           199
    x22       c33                           760
    x23       obj1                            1
    x23       c22                           166
    x23       c24                           554
    x23       c37                           318
    x23       c40                           338
    x24       obj1                            1
    x24       c9                            974
    x24       c17                           786
    x24       c18                           466
    x24       c23                           121
    x24       c30                           750
    x24       c39                           895
    x25       obj1                            1
    x25       c24                           754
    x25       c28                           300
    x25       c30                           343
    x25       c31                           633
    x25       c34                           836
    x26       obj1                            1
    x26       c7                            677
    x26       c9                            555
    x26       c23                           722
    x26       c24                           577
    x26       c30                           284
    x27       obj1                            1
    x27       c26                           693
    x27       c31                           585
    x27       c32                           970
    x28       obj1                            1
    x28       c3                            747
    x28       c10                           142
    x28       c20                           186
    x28       c23                           789
    x28       c24                           369
    x28       c25                           888
    x28       c28                           473
    x28       c38                           527
    x29       obj1                            1
    x29       c14                           817
    x29       c15                           290
    x29       c23                           876
    x29       c31                           273
    x29       c34                           981
    x30       obj1                            1
    x30       c11                           229
    x30       c26                           828
    x30       c27                           655
    x30       c30                           594
    x30       c32                           904
    x30       c39                           362
    x31       obj1                            1
    x31       c1                            463
    x31       c14                           875
    x31       c29                           487
    x31       c37                           315
    x31       c40                           324
    x32       obj1                            1
    x32       c5                            681
    x32       c13                           978
    x32       c14                           858
    x32       c19                           558
    x32       c25                           277
    x32       c28                           115
    x33       obj1                            1
    x33       c5                            681
    x33       c24                           841
    x34       obj1                            1
    x34       c6                            398
    x34       c24                           727
    x34       c34                           333
    x35       obj1                            1
    x35       c12                           542
    x35       c21                           737
    x36       obj1                            1
    x36       c4                            129
    x36       c7                            185
    x36       c9                            741
    x36       c10                           737
    x36       c25                           369
    x36       c26                           520
    x37       obj1                            1
    x37       c2                            671
    x37       c8                            210
    x37       c10                           623
    x37       c11                           869
    x37       c30                           213
    x37       c31                           942
    x37       c34                           523
    x37       c38                           709
    x38       obj1                            1
    x38       c18                           257
    x38       c20                           890
    x38       c23                           207
    x38       c27                           548
    x38       c35                           106
    x38       c38                           265
    x38       c40                           891
    x39       obj1                            1
    x39       c2                            396
    x39       c6                            814
    x39       c23                           267
    x39       c36                           654
    x39       c38                           518
    x40       obj1                            1
    x40       c4                            617
    x40       c21                           276
    x40       c24                           813
    x40       c32                           361
    x41       obj1                            1
    x41       c7                            350
    x41       c11                           261
    x41       c19                           341
    x41       c31                           128
    x42       obj1                            1
    x42       c4                            589
    x42       c18                           538
    x42       c28                           649
    x42       c37                           434
    x43       obj1                            1
    x43       c6                            886
    x43       c11                           759
    x43       c19                           485
    x43       c20                           294
    x43       c22                           771
    x44       obj1                            1
    x44       c2                            557
    x44       c3                            719
    x44       c13                           282
    x44       c23                           247
    x45       obj1                            1
    x45       c3                            971
    x45       c12                           962
    x45       c14                           716
    x45       c21                           545
    x45       c31                           319
    x46       obj1                            1
    x46       c1                            866
    x46       c40                           166
    x47       obj1                            1
    x47       c3                            394
    x47       c11                           425
    x47       c12                           154
    x48       obj1                            1
    x48       c3                            384
    x48       c19                           102
    x48       c24                           232
    x49       obj1                            1
    x49       c2                            222
    x49       c31                           507
    x49       c36                           927
    x50       obj1                            1
    x50       c16                           316
    x50       c17                           194
    x50       c21                           799
    x50       c40                           423
    x51       obj1                            1
    x51       c21                           716
    x51       c31                           735
    x52       obj1                            1
    x52       c1                            952
    x52       c4                            159
    x52       c11                           150
    x52       c20                           628
    x52       c26                           760
    x52       c28                           822
    x53       obj1                            1
    x53       c2                            945
    x53       c4                            866
    x53       c7                            451
    x53       c18                           511
    x53       c20                           848
    x53       c40                           682
    x54       obj1                            1
    x54       c8                            798
    x54       c22                           506
    x54       c34                           655
    x55       obj1                            1
    x55       c7                            626
    x55       c18                           209
    x55       c20                           941
    x55       c34                           646
    x55       c39                           304
    x56       obj1                            1
    x56       c5                            161
    x56       c12                           432
    x56       c14                           991
    x56       c17                           842
    x56       c29                           502
    x57       obj1                            1
    x57       c22                           655
    x57       c34                           368
    x57       c37                           937
    x58       obj1                            1
    x58       c12                           101
    x58       c14                           439
    x58       c16                           475
    x58       c22                           107
    x58       c40                           870
    x59       obj1                            1
    x59       c7                            460
    x59       c18                           132
    x60       obj1                            1
    x60       c21                           382
    x61       obj1                            1
    x61       c23                           580
    x61       c32                           242
    x62       obj1                            1
    x62       c2                            597
    x62       c3                            625
    x62       c9                            535
    x62       c17                           167
    x62       c22                           306
    x62       c33                           153
    x63       obj1                            1
    x63       c12                           412
    x63       c16                           420
    x63       c26                           394
    x63       c38                           853
    x64       obj1                            1
    x64       c1                            837
    x64       c4                            816
    x64       c10                           193
    x64       c17                           426
    x64       c23                           501
    x64       c39                           197
    x65       obj1                            1
    x65       c6                            229
    x65       c7                            536
    x65       c25                           528
    x65       c29                           168
    x65       c31                           716
    x65       c36                           971
    x66       obj1                            1
    x66       c15                           494
    x66       c29                           947
    x66       c37                           968
    x67       obj1                            1
    x67       c33                           758
    x68       obj1                            1
    x68       c6                            169
    x68       c23                           826
    x69       obj1                            1
    x69       c5                            621
    x69       c6                            230
    x69       c10                           927
    x69       c20                           626
    x69       c21                           724
    x69       c22                           362
    x69       c27                           990
    x70       obj1                            1
    x70       c4                            277
    x70       c6                            805
    x70       c23                           574
    x70       c25                           463
    x70       c34                           900
    x70       c40                           539
    x71       obj1                            1
    x71       c25                           471
    x71       c33                           267
    x72       obj1                            1
    x72       c2                            961
    x72       c8                            721
    x72       c17                           968
    x73       obj1                            1
    x73       c1                            560
    x73       c2                            825
    x73       c12                           860
    x73       c34                           925
    x73       c39                           182
    x74       obj1                            1
    x74       c11                           973
    x74       c18                           432
    x74       c34                           348
    x74       c35                           683
    x74       c36                           433
    x75       obj1                            1
    x75       c10                           251
    x75       c11                           204
    x75       c12                           297
    x75       c17                           728
    x75       c22                           943
    x75       c25                           874
    x75       c31                           199
    x75       c36                           434
    x76       obj1                            1
    x76       c39                           811
    x77       obj1                            1
    x77       c13                           333
    x77       c35                           265
    x77       c37                           209
    x78       obj1                            1
    x78       c14                           493
    x78       c20                           889
    x78       c34                           167
    x79       obj1                            1
    x79       c5                            801
    x80       obj1                            1
    x80       c17                           896
    x80       c19                           981
    x80       c24                           650
    x80       c25                           316
    x80       c26                           900
    x80       c40                           277
    MARK0001  'MARKER'                 'INTEND'
RHS
    rhs       c1                           2545
    rhs       c2                           3551
    rhs       c3                           2248
    rhs       c4                           1819
    rhs       c5                           2097
    rhs       c6                           2489
    rhs       c7                           2366
    rhs       c8                           1860
    rhs       c9                           2596
    rhs       c10                          2390
    rhs       c11                          1935
    rhs       c12                          2282
    rhs       c13                          1038
    rhs       c14                          3583
    rhs       c15                          1175
    rhs       c16                           836
    rhs       c17                          2847
    rhs       c18                          1962
    rhs       c19                          1422
    rhs       c20                          3681
    rhs       c21                          2253
    rhs       c22                          2141
    rhs       c23                          3165
    rhs       c24                          2759
    rhs       c25                          2733
    rhs       c26                          3678
    rhs       c27                          1422
    rhs       c28                          2014
    rhs       c29                          1552
    rhs       c30                          1207
    rhs       c31                          3061
    rhs       c32                          1808
    rhs       c33                          1022
    rhs       c34                          3691
    rhs       c35                           750
    rhs       c36                          2128
    rhs       c37                          3010
    rhs       c38                          1744
    rhs       c39                          1520
    rhs       c40                          2952
BOUNDS
 LI bnd       x1        0
 LI bnd       x2        0
 LI bnd       x3        0
 LI bnd       x4        0
 LI bnd       x5        0
 LI bnd       x6        0
 LI bnd       x7        0
 LI bnd       x8        0
 LI bnd       x9        0
 LI bnd       x10       0
 LI bnd       x11       0
 LI bnd       x12       0
 LI bnd       x13       0
 LI bnd       x14       0
 LI bnd       x15       0
 LI bnd       x16       0
 LI bnd       x17       0
 LI bnd       x18       0
 LI bnd       x19       0
 LI bnd       x20       0
 LI bnd       x21       0
 LI bnd       x22       0
 LI bnd       x23       0
 LI bnd       x24       0
 LI bnd       x25       0
 LI bnd       x26       0
 LI bnd       x27       0
 LI bnd       x28       0
 LI bnd       x29       0
 LI bnd       x30       0
 LI bnd       x31       0
 LI bnd       x32       0
 LI bnd       x33       0
 LI bnd       x34       0
 LI bnd       x35       0
 LI bnd       x36       0
 LI bnd       x37       0
 LI bnd       x38       0
 LI bnd       x39       0
 LI bnd       x40       0
 LI bnd       x41       0
 LI bnd       x42       0
 LI bnd       x43       0
 LI bnd       x44       0
 LI bnd       x45       0
 LI bnd       x46       0
 LI bnd       x47       0
 LI bnd       x48       0
 LI bnd       x49       0
 LI bnd       x50       0
 LI bnd       x51       0
 LI bnd       x52       0
 LI bnd       x53       0
 LI bnd       x54       0
 LI bnd       x55       0
 LI bnd       x56       0
 LI bnd       x57       0
 LI bnd       x58       0
 LI bnd       x59       0
 LI bnd       x60       0
 LI bnd       x61       0
 LI bnd       x62       0
 LI bnd       x63       0
 LI bnd       x64       0
 LI bnd       x65       0
 LI bnd       x66       0
 LI bnd       x67       0
 LI bnd       x68       0
 LI bnd       x69       0
 LI bnd       x70       0
 LI bnd       x71       0
 LI bnd       x72       0
 LI bnd       x73       0
 LI bnd       x74       0
 LI bnd       x75       0
 LI bnd       x76       0
 LI bnd       x77       0
 LI bnd       x78       0
 LI bnd       x79       0
 LI bnd       x80       0
ENDATA
